p cnf 412 698
42 23 3 76 0
42 23 3 -76 0
-41 45 -27 77 0
-41 45 -27 -77 0
73 48 -16 78 0
73 48 -16 -78 0
1 -17 72 79 0
1 -17 72 -79 0
75 -65 -45 80 0
75 -65 -45 -80 0
-36 -40 21 81 0
-36 -40 21 -81 0
54 37 -73 82 0
54 37 -73 -82 0
3 -29 -45 83 0
3 -29 -45 -83 0
6 51 -12 84 0
6 51 -12 -84 0
-22 8 -53 85 0
-22 8 -53 -85 0
65 62 15 86 0
65 62 15 -86 0
38 3 48 87 0
38 3 48 -87 0
33 10 32 88 0
33 10 32 -88 0
74 34 -56 89 0
74 34 -56 -89 0
-73 -58 72 90 0
-73 -58 72 -90 0
-25 -39 8 91 0
-25 -39 8 -91 0
50 -12 -35 92 0
50 -12 -35 -92 0
-25 5 52 93 0
-25 5 52 -93 0
-62 5 -39 94 0
-62 5 -39 -94 0
31 -13 58 95 0
31 -13 58 -95 0
-49 -12 -71 96 0
-49 -12 -71 -96 0
-14 -26 57 97 0
-14 -26 57 -97 0
-15 -73 -33 98 0
-15 -73 -33 -98 0
72 40 -44 99 0
72 40 -44 -99 0
35 -37 -71 100 0
35 -37 -71 -100 0
-49 38 -71 101 0
-49 38 -71 -101 0
-14 32 -73 102 0
-14 32 -73 -102 0
-23 19 43 103 0
-23 19 43 -103 0
-20 -6 -60 104 0
-20 -6 -60 -104 0
-47 75 28 105 0
-47 75 28 -105 0
26 65 -54 106 0
26 65 -54 -106 0
-68 -48 30 107 0
-68 -48 30 -107 0
35 -66 -52 108 0
35 -66 -52 -108 0
23 -65 67 109 0
23 -65 67 -109 0
74 -25 -32 110 0
74 -25 -32 -110 0
43 -18 -39 111 0
43 -18 -39 -111 0
-20 31 45 112 0
-20 31 45 -112 0
-7 -55 -3 113 0
-7 -55 -3 -113 0
44 5 38 114 0
44 5 38 -114 0
68 11 41 115 0
68 11 41 -115 0
73 5 51 116 0
73 5 51 -116 0
34 -46 3 117 0
34 -46 3 -117 0
25 46 -18 118 0
25 46 -18 -118 0
51 -32 -29 119 0
51 -32 -29 -119 0
3 54 -10 120 0
3 54 -10 -120 0
-25 -19 18 121 0
-25 -19 18 -121 0
19 15 -2 122 0
19 15 -2 -122 0
-37 -58 -38 123 0
-37 -58 -38 -123 0
-46 -40 -22 124 0
-46 -40 -22 -124 0
43 -54 53 125 0
43 -54 53 -125 0
31 -2 -37 126 0
31 -2 -37 -126 0
-36 62 -70 127 0
-36 62 -70 -127 0
-19 -2 24 128 0
-19 -2 24 -128 0
-44 31 35 129 0
-44 31 35 -129 0
-11 -59 -67 130 0
-11 -59 -67 -130 0
-8 20 50 131 0
-8 20 50 -131 0
37 -72 7 132 0
37 -72 7 -132 0
-18 -73 28 133 0
-18 -73 28 -133 0
55 40 -49 134 0
55 40 -49 -134 0
38 18 39 135 0
38 18 39 -135 0
-3 -13 48 136 0
-3 -13 48 -136 0
73 -18 -6 137 0
73 -18 -6 -137 0
-31 67 -57 138 0
-31 67 -57 -138 0
-1 13 17 139 0
-1 13 17 -139 0
-29 64 -41 140 0
-29 64 -41 -140 0
-20 -60 68 141 0
-20 -60 68 -141 0
-69 59 -7 142 0
-69 59 -7 -142 0
29 -24 47 143 0
29 -24 47 -143 0
-12 68 -41 144 0
-12 68 -41 -144 0
15 8 30 145 0
15 8 30 -145 0
27 -45 61 146 0
27 -45 61 -146 0
21 35 -9 147 0
21 35 -9 -147 0
-19 -62 -65 148 0
-19 -62 -65 -148 0
-15 -9 -39 149 0
-15 -9 -39 -149 0
-43 10 65 150 0
-43 10 65 -150 0
-74 -44 59 151 0
-74 -44 59 -151 0
10 8 60 152 0
10 8 60 -152 0
-60 -54 4 153 0
-60 -54 4 -153 0
-19 -59 10 154 0
-19 -59 10 -154 0
39 6 14 155 0
39 6 14 -155 0
43 -2 -74 156 0
43 -2 -74 -156 0
51 70 69 157 0
51 70 69 -157 0
-53 -73 -8 158 0
-53 -73 -8 -158 0
-57 -65 -36 159 0
-57 -65 -36 -159 0
71 -11 4 160 0
71 -11 4 -160 0
40 7 -8 161 0
40 7 -8 -161 0
23 -10 64 162 0
23 -10 64 -162 0
-46 23 -74 163 0
-46 23 -74 -163 0
-31 -61 35 164 0
-31 -61 35 -164 0
-64 -48 -18 165 0
-64 -48 -18 -165 0
74 -21 64 166 0
74 -21 64 -166 0
-75 6 31 167 0
-75 6 31 -167 0
-64 -68 23 168 0
-64 -68 23 -168 0
-33 -1 -11 169 0
-33 -1 -11 -169 0
74 -55 35 170 0
74 -55 35 -170 0
-73 -45 37 171 0
-73 -45 37 -171 0
-8 -51 -26 172 0
-8 -51 -26 -172 0
-39 27 41 173 0
-39 27 41 -173 0
12 -47 11 174 0
12 -47 11 -174 0
-10 -39 57 175 0
-10 -39 57 -175 0
61 -53 -73 176 0
61 -53 -73 -176 0
-42 46 -25 177 0
-42 46 -25 -177 0
41 48 15 178 0
41 48 15 -178 0
17 -46 -1 179 0
17 -46 -1 -179 0
-29 -3 10 180 0
-29 -3 10 -180 0
-33 -34 35 181 0
-33 -34 35 -181 0
22 -43 33 182 0
22 -43 33 -182 0
-56 -25 -35 183 0
-56 -25 -35 -183 0
2 29 63 184 0
2 29 63 -184 0
-57 -24 29 185 0
-57 -24 29 -185 0
-29 28 -45 186 0
-29 28 -45 -186 0
72 -29 -10 187 0
72 -29 -10 -187 0
49 23 -11 188 0
49 23 -11 -188 0
-71 -11 -23 189 0
-71 -11 -23 -189 0
-10 21 -67 190 0
-10 21 -67 -190 0
49 41 15 191 0
49 41 15 -191 0
-59 -24 51 192 0
-59 -24 51 -192 0
-54 27 -42 193 0
-54 27 -42 -193 0
60 30 61 194 0
60 30 61 -194 0
-51 -22 -46 195 0
-51 -22 -46 -195 0
-30 -34 -23 196 0
-30 -34 -23 -196 0
-67 35 -75 197 0
-67 35 -75 -197 0
61 -6 -4 198 0
61 -6 -4 -198 0
-2 -55 69 199 0
-2 -55 69 -199 0
-13 37 28 200 0
-13 37 28 -200 0
-41 33 47 201 0
-41 33 47 -201 0
-40 69 57 202 0
-40 69 57 -202 0
16 -21 15 203 0
16 -21 15 -203 0
-58 49 -65 204 0
-58 49 -65 -204 0
57 49 14 205 0
57 49 14 -205 0
-23 -73 -50 206 0
-23 -73 -50 -206 0
-16 -26 45 207 0
-16 -26 45 -207 0
5 6 -26 208 0
5 6 -26 -208 0
29 -8 46 209 0
29 -8 46 -209 0
70 -40 56 210 0
70 -40 56 -210 0
-25 -72 -10 211 0
-25 -72 -10 -211 0
51 6 21 212 0
51 6 21 -212 0
-26 8 -16 213 0
-26 8 -16 -213 0
49 -55 48 214 0
49 -55 48 -214 0
27 69 -71 215 0
27 69 -71 -215 0
19 26 42 216 0
19 26 42 -216 0
-24 1 -38 217 0
-24 1 -38 -217 0
55 -47 70 218 0
55 -47 70 -218 0
71 -52 7 219 0
71 -52 7 -219 0
-42 -44 32 220 0
-42 -44 32 -220 0
67 71 -43 221 0
67 71 -43 -221 0
43 -21 37 222 0
43 -21 37 -222 0
-66 14 -47 223 0
-66 14 -47 -223 0
19 -33 -21 224 0
19 -33 -21 -224 0
62 -14 40 225 0
62 -14 40 -225 0
-20 -54 4 226 0
-20 -54 4 -226 0
62 -40 45 227 0
62 -40 45 -227 0
-23 41 -25 228 0
-23 41 -25 -228 0
-39 -45 -18 229 0
-39 -45 -18 -229 0
-56 -4 20 230 0
-56 -4 20 -230 0
18 -45 -33 231 0
18 -45 -33 -231 0
67 -7 26 232 0
67 -7 26 -232 0
37 -23 -60 233 0
37 -23 -60 -233 0
-69 18 -63 234 0
-69 18 -63 -234 0
-33 -67 -57 235 0
-33 -67 -57 -235 0
-6 8 -17 236 0
-6 8 -17 -236 0
-19 4 -65 237 0
-19 4 -65 -237 0
-5 54 -69 238 0
-5 54 -69 -238 0
35 -2 -59 239 0
35 -2 -59 -239 0
-75 -12 -62 240 0
-75 -12 -62 -240 0
-30 70 -59 241 0
-30 70 -59 -241 0
30 52 75 242 0
30 52 75 -242 0
-66 25 70 243 0
-66 25 70 -243 0
26 -48 -6 244 0
26 -48 -6 -244 0
-5 -70 -72 245 0
-5 -70 -72 -245 0
42 -6 56 246 0
42 -6 56 -246 0
21 7 64 247 0
21 7 64 -247 0
36 -16 -34 248 0
36 -16 -34 -248 0
-34 26 20 249 0
-34 26 20 -249 0
24 40 -10 250 0
24 40 -10 -250 0
-6 72 -67 251 0
-6 72 -67 -251 0
-74 -42 -50 252 0
-74 -42 -50 -252 0
71 -22 15 253 0
71 -22 15 -253 0
1 -10 -40 254 0
1 -10 -40 -254 0
-35 72 -39 255 0
-35 72 -39 -255 0
31 22 66 256 0
31 22 66 -256 0
-67 -6 -53 257 0
-67 -6 -53 -257 0
-41 63 59 258 0
-41 63 59 -258 0
70 17 46 259 0
70 17 46 -259 0
-33 -71 16 260 0
-33 -71 16 -260 0
-65 72 -54 261 0
-65 72 -54 -261 0
-67 -11 44 262 0
-67 -11 44 -262 0
-18 -47 66 263 0
-18 -47 66 -263 0
69 -4 71 264 0
69 -4 71 -264 0
-60 36 -31 265 0
-60 36 -31 -265 0
46 72 42 266 0
46 72 42 -266 0
-18 26 20 267 0
-18 26 20 -267 0
-68 20 50 268 0
-68 20 50 -268 0
10 -12 40 269 0
10 -12 40 -269 0
-20 23 -40 270 0
-20 23 -40 -270 0
-38 -50 4 271 0
-38 -50 4 -271 0
18 4 -50 272 0
18 4 -50 -272 0
-72 -27 -55 273 0
-72 -27 -55 -273 0
56 28 69 274 0
56 28 69 -274 0
-42 72 64 275 0
-42 72 64 -275 0
20 -75 -30 276 0
20 -75 -30 -276 0
-37 -56 35 277 0
-37 -56 35 -277 0
37 -13 39 278 0
37 -13 39 -278 0
-5 -38 55 279 0
-5 -38 55 -279 0
12 -24 -9 280 0
12 -24 -9 -280 0
-27 15 45 281 0
-27 15 45 -281 0
-41 71 -2 282 0
-41 71 -2 -282 0
-12 73 -1 283 0
-12 73 -1 -283 0
-3 19 21 284 0
-3 19 21 -284 0
69 29 27 285 0
69 29 27 -285 0
48 56 -35 286 0
48 56 -35 -286 0
-38 -1 64 287 0
-38 -1 64 -287 0
27 -12 22 288 0
27 -12 22 -288 0
11 -65 -53 289 0
11 -65 -53 -289 0
-34 -40 -23 290 0
-34 -40 -23 -290 0
-7 14 -32 291 0
-7 14 -32 -291 0
35 -68 -24 292 0
35 -68 -24 -292 0
59 -4 70 293 0
59 -4 70 -293 0
-22 56 7 294 0
-22 56 7 -294 0
-12 67 25 295 0
-12 67 25 -295 0
-3 47 34 296 0
-3 47 34 -296 0
4 69 18 297 0
4 69 18 -297 0
-75 8 14 298 0
-75 8 14 -298 0
23 40 61 299 0
23 40 61 -299 0
-31 29 3 300 0
-31 29 3 -300 0
56 -28 6 301 0
56 -28 6 -301 0
-39 75 1 302 0
-39 75 1 -302 0
67 25 -32 303 0
67 25 -32 -303 0
-11 -41 16 304 0
-11 -41 16 -304 0
7 25 61 305 0
7 25 61 -305 0
-45 -60 38 306 0
-45 -60 38 -306 0
-57 38 -33 307 0
-57 38 -33 -307 0
-7 12 9 308 0
-7 12 9 -308 0
14 28 -68 309 0
14 28 -68 -309 0
-62 -31 12 310 0
-62 -31 12 -310 0
58 -9 -1 311 0
58 -9 -1 -311 0
54 41 -37 312 0
54 41 -37 -312 0
71 -29 68 313 0
71 -29 68 -313 0
31 6 -37 314 0
31 6 -37 -314 0
10 -21 -15 315 0
10 -21 -15 -315 0
37 -50 -63 316 0
37 -50 -63 -316 0
-37 -48 12 317 0
-37 -48 12 -317 0
-54 -55 -62 318 0
-54 -55 -62 -318 0
55 14 59 319 0
55 14 59 -319 0
1 -45 38 320 0
1 -45 38 -320 0
-69 -27 -5 321 0
-69 -27 -5 -321 0
-27 25 46 322 0
-27 25 46 -322 0
-71 -1 -10 323 0
-71 -1 -10 -323 0
36 -26 -6 324 0
36 -26 -6 -324 0
-37 -43 11 325 0
-37 -43 11 -325 0
29 51 27 326 0
29 51 27 -326 0
31 59 -40 327 0
31 59 -40 -327 0
-33 -17 62 328 0
-33 -17 62 -328 0
-35 59 40 329 0
-35 59 40 -329 0
15 -68 16 330 0
15 -68 16 -330 0
-42 -26 -44 331 0
-42 -26 -44 -331 0
31 -40 23 332 0
31 -40 23 -332 0
65 3 71 333 0
65 3 71 -333 0
66 36 -13 334 0
66 36 -13 -334 0
-36 -28 31 335 0
-36 -28 31 -335 0
69 8 31 336 0
69 8 31 -336 0
-20 -38 -52 337 0
-20 -38 -52 -337 0
-52 60 -40 338 0
-52 60 -40 -338 0
1 7 -13 339 0
1 7 -13 -339 0
-73 41 7 340 0
-73 41 7 -340 0
42 -14 4 341 0
42 -14 4 -341 0
-58 -31 -66 342 0
-58 -31 -66 -342 0
-37 -33 14 343 0
-37 -33 14 -343 0
59 75 28 344 0
59 75 28 -344 0
-17 -55 10 345 0
-17 -55 10 -345 0
33 74 -62 346 0
33 74 -62 -346 0
-59 -75 -70 347 0
-59 -75 -70 -347 0
16 -14 20 348 0
16 -14 20 -348 0
-44 -49 18 349 0
-44 -49 18 -349 0
74 -11 8 350 0
74 -11 8 -350 0
-34 69 -15 351 0
-34 69 -15 -351 0
53 -12 48 352 0
53 -12 48 -352 0
-41 -2 -55 353 0
-41 -2 -55 -353 0
39 40 -16 354 0
39 40 -16 -354 0
-33 -45 -57 355 0
-33 -45 -57 -355 0
69 -5 -45 356 0
69 -5 -45 -356 0
62 51 -68 357 0
62 51 -68 -357 0
-69 43 -56 358 0
-69 43 -56 -358 0
-47 1 -13 359 0
-47 1 -13 -359 0
34 68 -16 360 0
34 68 -16 -360 0
67 27 -65 361 0
67 27 -65 -361 0
18 -21 -39 362 0
18 -21 -39 -362 0
-65 49 -7 363 0
-65 49 -7 -363 0
18 -68 44 364 0
18 -68 44 -364 0
1 14 71 365 0
1 14 71 -365 0
-2 -20 55 366 0
-2 -20 55 -366 0
54 74 35 367 0
54 74 35 -367 0
-56 -73 63 368 0
-56 -73 63 -368 0
-31 61 -2 369 0
-31 61 -2 -369 0
-3 17 70 370 0
-3 17 70 -370 0
26 34 43 371 0
26 34 43 -371 0
-19 3 22 372 0
-19 3 22 -372 0
-68 -1 -27 373 0
-68 -1 -27 -373 0
-64 18 -55 374 0
-64 18 -55 -374 0
-47 20 -12 375 0
-47 20 -12 -375 0
64 -42 2 376 0
64 -42 2 -376 0
54 -65 -29 377 0
54 -65 -29 -377 0
-30 36 49 378 0
-30 36 49 -378 0
51 -4 -55 379 0
51 -4 -55 -379 0
26 40 16 380 0
26 40 16 -380 0
5 70 -73 381 0
5 70 -73 -381 0
-32 4 34 382 0
-32 4 34 -382 0
34 -38 -8 383 0
34 -38 -8 -383 0
66 -55 23 384 0
66 -55 23 -384 0
47 14 -34 385 0
47 14 -34 -385 0
13 -15 64 386 0
13 -15 64 -386 0
51 -44 -67 387 0
51 -44 -67 -387 0
69 6 30 388 0
69 6 30 -388 0
-45 11 62 389 0
-45 11 62 -389 0
-11 3 -49 390 0
-11 3 -49 -390 0
34 -23 -7 391 0
34 -23 -7 -391 0
-55 -16 -14 392 0
-55 -16 -14 -392 0
-39 -45 67 393 0
-39 -45 67 -393 0
-75 15 -23 394 0
-75 15 -23 -394 0
-21 -17 -56 395 0
-21 -17 -56 -395 0
-62 -20 -13 396 0
-62 -20 -13 -396 0
-39 -21 -69 397 0
-39 -21 -69 -397 0
39 29 -15 398 0
39 29 -15 -398 0
-42 22 1 399 0
-42 22 1 -399 0
43 29 24 400 0
43 29 24 -400 0
401 402 403 404 0
401 402 403 -404 0
401 402 -403 404 0
401 402 -403 -404 0
401 -402 403 404 0
401 -402 403 -404 0
401 -402 -403 404 0
401 -402 -403 -404 0
-401 402 403 404 0
-401 402 403 -404 0
-401 402 -403 404 0
-401 402 -403 -404 0
-401 -402 403 404 0
-401 -402 403 -404 0
-401 -402 -403 404 0
-401 -402 -403 -404 0
405 406 407 408 0
405 406 407 -408 0
405 406 -407 408 0
405 406 -407 -408 0
405 -406 407 408 0
405 -406 407 -408 0
405 -406 -407 408 0
405 -406 -407 -408 0
-405 406 407 408 0
-405 406 407 -408 0
-405 406 -407 408 0
-405 406 -407 -408 0
-405 -406 407 408 0
-405 -406 407 -408 0
-405 -406 -407 408 0
-405 -406 -407 -408 0
409 410 411 412 0
409 410 411 -412 0
409 410 -411 412 0
409 410 -411 -412 0
409 -410 411 412 0
409 -410 411 -412 0
409 -410 -411 412 0
409 -410 -411 -412 0
-409 410 411 412 0
-409 410 411 -412 0
-409 410 -411 412 0
-409 410 -411 -412 0
-409 -410 411 412 0
-409 -410 411 -412 0
-409 -410 -411 412 0
-409 -410 -411 -412 0
